param W_CLASS:=
1 0.002093062139724175
2 -0.0006729122445681968
3 0
4 0.008599480574996154
5 -0.008599480574996154
6 -0.008599480574996154
7 -0.008599480574996154
8 -0.008599480574996154
9 -0.008599480574996154
10 0.008599480574996154
11 0.008599480574996154
12 0.008599480574996154
13 0.008599480574996154
14 -0.008599480574996154
15 0.008599480574996154
16 -0.008599480574996154
17 0.008599480574996154
18 -0.008599480574996154
19 -0.008599480574996154;

param B_CLASS:= 4.769055598091406 ;